graphite-pos                            
   1.00000000000000     
     2.1566391378300001   -1.2451361867699999    0.0000000000000000
     2.1566391378300001    1.2451361867699999    0.0000000000000000
     0.0000000000000000    0.0000000000000000    6.4882872773200004
   N    B 
   2   2
Direct
  0.0000000000000000  0.0000000000000000  0.0000000000000000
  0.6666700000000034  0.6666700000000034  0.5000000000000000
  0.6666700000000034  0.6666700000000034  0.0000000000000000
  0.0000000000000000  0.0000000000000000  0.5000000000000000
 
  0.00000000E+00  0.00000000E+00  0.00000000E+00
  0.00000000E+00  0.00000000E+00  0.00000000E+00
  0.00000000E+00  0.00000000E+00  0.00000000E+00
  0.00000000E+00  0.00000000E+00  0.00000000E+00
