N B
   1.0
    10.7831956891500003   -6.2256809338499997    0.0000000000000000
    10.7831956891500003    6.2256809338499997    0.0000000000000000
     0.0000000000000000    0.0000000000000000   12.9765745546400009
 100  100
Direct
  0.0000000000000000  0.0000000000000000  0.0000000000000000
  0.2000000000000000  0.0000000000000000  0.0000000000000000
  0.4000000000000000  0.0000000000000000  0.0000000000000000
  0.6000000000000001  0.0000000000000000  0.0000000000000000
  0.8000000000000000  0.0000000000000000  0.0000000000000000
  0.0000000000000000  0.2000000000000000  0.0000000000000000
  0.2000000000000000  0.2000000000000000  0.0000000000000000
  0.4000000000000000  0.2000000000000000  0.0000000000000000
  0.6000000000000001  0.2000000000000000  0.0000000000000000
  0.8000000000000000  0.2000000000000000  0.0000000000000000
  0.0000000000000000  0.4000000000000000  0.0000000000000000
  0.2000000000000000  0.4000000000000000  0.0000000000000000
  0.4000000000000000  0.4000000000000000  0.0000000000000000
  0.6000000000000001  0.4000000000000000  0.0000000000000000
  0.8000000000000000  0.4000000000000000  0.0000000000000000
  0.0000000000000000  0.6000000000000001  0.0000000000000000
  0.2000000000000000  0.6000000000000001  0.0000000000000000
  0.4000000000000000  0.6000000000000001  0.0000000000000000
  0.6000000000000001  0.6000000000000001  0.0000000000000000
  0.8000000000000000  0.6000000000000001  0.0000000000000000
  0.0000000000000000  0.8000000000000000  0.0000000000000000
  0.2000000000000000  0.8000000000000000  0.0000000000000000
  0.4000000000000000  0.8000000000000000  0.0000000000000000
  0.6000000000000001  0.8000000000000000  0.0000000000000000
  0.8000000000000000  0.8000000000000000  0.0000000000000000
  0.0000000000000000  0.0000000000000000  0.5000000000000000
  0.2000000000000000  0.0000000000000000  0.5000000000000000
  0.4000000000000000  0.0000000000000000  0.5000000000000000
  0.6000000000000001  0.0000000000000000  0.5000000000000000
  0.8000000000000000  0.0000000000000000  0.5000000000000000
  0.0000000000000000  0.2000000000000000  0.5000000000000000
  0.2000000000000000  0.2000000000000000  0.5000000000000000
  0.4000000000000000  0.2000000000000000  0.5000000000000000
  0.6000000000000001  0.2000000000000000  0.5000000000000000
  0.8000000000000000  0.2000000000000000  0.5000000000000000
  0.0000000000000000  0.4000000000000000  0.5000000000000000
  0.2000000000000000  0.4000000000000000  0.5000000000000000
  0.4000000000000000  0.4000000000000000  0.5000000000000000
  0.6000000000000001  0.4000000000000000  0.5000000000000000
  0.8000000000000000  0.4000000000000000  0.5000000000000000
  0.0000000000000000  0.6000000000000001  0.5000000000000000
  0.2000000000000000  0.6000000000000001  0.5000000000000000
  0.4000000000000000  0.6000000000000001  0.5000000000000000
  0.6000000000000001  0.6000000000000001  0.5000000000000000
  0.8000000000000000  0.6000000000000001  0.5000000000000000
  0.0000000000000000  0.8000000000000000  0.5000000000000000
  0.2000000000000000  0.8000000000000000  0.5000000000000000
  0.4000000000000000  0.8000000000000000  0.5000000000000000
  0.6000000000000001  0.8000000000000000  0.5000000000000000
  0.8000000000000000  0.8000000000000000  0.5000000000000000
  0.1333340000000007  0.1333340000000007  0.2500000000000000
  0.3333340000000007  0.1333340000000007  0.2500000000000000
  0.5333340000000008  0.1333340000000007  0.2500000000000000
  0.7333340000000007  0.1333340000000007  0.2500000000000000
  0.9333340000000008  0.1333340000000007  0.2500000000000000
  0.1333340000000007  0.3333340000000007  0.2500000000000000
  0.3333340000000007  0.3333340000000007  0.2500000000000000
  0.5333340000000008  0.3333340000000007  0.2500000000000000
  0.7333340000000007  0.3333340000000007  0.2500000000000000
  0.9333340000000008  0.3333340000000007  0.2500000000000000
  0.1333340000000007  0.5333340000000008  0.2500000000000000
  0.3333340000000007  0.5333340000000008  0.2500000000000000
  0.5333340000000008  0.5333340000000008  0.2500000000000000
  0.7333340000000007  0.5333340000000008  0.2500000000000000
  0.9333340000000008  0.5333340000000008  0.2500000000000000
  0.1333340000000007  0.7333340000000007  0.2500000000000000
  0.3333340000000007  0.7333340000000007  0.2500000000000000
  0.5333340000000008  0.7333340000000007  0.2500000000000000
  0.7333340000000007  0.7333340000000007  0.2500000000000000
  0.9333340000000008  0.7333340000000007  0.2500000000000000
  0.1333340000000007  0.9333340000000008  0.2500000000000000
  0.3333340000000007  0.9333340000000008  0.2500000000000000
  0.5333340000000008  0.9333340000000008  0.2500000000000000
  0.7333340000000007  0.9333340000000008  0.2500000000000000
  0.9333340000000008  0.9333340000000008  0.2500000000000000
  0.1333340000000007  0.1333340000000007  0.7500000000000000
  0.3333340000000007  0.1333340000000007  0.7500000000000000
  0.5333340000000008  0.1333340000000007  0.7500000000000000
  0.7333340000000007  0.1333340000000007  0.7500000000000000
  0.9333340000000008  0.1333340000000007  0.7500000000000000
  0.1333340000000007  0.3333340000000007  0.7500000000000000
  0.3333340000000007  0.3333340000000007  0.7500000000000000
  0.5333340000000008  0.3333340000000007  0.7500000000000000
  0.7333340000000007  0.3333340000000007  0.7500000000000000
  0.9333340000000008  0.3333340000000007  0.7500000000000000
  0.1333340000000007  0.5333340000000008  0.7500000000000000
  0.3333340000000007  0.5333340000000008  0.7500000000000000
  0.5333340000000008  0.5333340000000008  0.7500000000000000
  0.7333340000000007  0.5333340000000008  0.7500000000000000
  0.9333340000000008  0.5333340000000008  0.7500000000000000
  0.1333340000000007  0.7333340000000007  0.7500000000000000
  0.3333340000000007  0.7333340000000007  0.7500000000000000
  0.5333340000000008  0.7333340000000007  0.7500000000000000
  0.7333340000000007  0.7333340000000007  0.7500000000000000
  0.9333340000000008  0.7333340000000007  0.7500000000000000
  0.1333340000000007  0.9333340000000008  0.7500000000000000
  0.3333340000000007  0.9333340000000008  0.7500000000000000
  0.5333340000000008  0.9333340000000008  0.7500000000000000
  0.7333340000000007  0.9333340000000008  0.7500000000000000
  0.9333340000000008  0.9333340000000008  0.7500000000000000
  0.1333340000000007  0.1333340000000007  0.0000000000000000
  0.3333340000000007  0.1333340000000007  0.0000000000000000
  0.5333340000000008  0.1333340000000007  0.0000000000000000
  0.7333340000000007  0.1333340000000007  0.0000000000000000
  0.9333340000000008  0.1333340000000007  0.0000000000000000
  0.1333340000000007  0.3333340000000007  0.0000000000000000
  0.3333340000000007  0.3333340000000007  0.0000000000000000
  0.5333340000000008  0.3333340000000007  0.0000000000000000
  0.7333340000000007  0.3333340000000007  0.0000000000000000
  0.9333340000000008  0.3333340000000007  0.0000000000000000
  0.1333340000000007  0.5333340000000008  0.0000000000000000
  0.3333340000000007  0.5333340000000008  0.0000000000000000
  0.5333340000000008  0.5333340000000008  0.0000000000000000
  0.7333340000000007  0.5333340000000008  0.0000000000000000
  0.9333340000000008  0.5333340000000008  0.0000000000000000
  0.1333340000000007  0.7333340000000007  0.0000000000000000
  0.3333340000000007  0.7333340000000007  0.0000000000000000
  0.5333340000000008  0.7333340000000007  0.0000000000000000
  0.7333340000000007  0.7333340000000007  0.0000000000000000
  0.9333340000000008  0.7333340000000007  0.0000000000000000
  0.1333340000000007  0.9333340000000008  0.0000000000000000
  0.3333340000000007  0.9333340000000008  0.0000000000000000
  0.5333340000000008  0.9333340000000008  0.0000000000000000
  0.7333340000000007  0.9333340000000008  0.0000000000000000
  0.9333340000000008  0.9333340000000008  0.0000000000000000
  0.1333340000000007  0.1333340000000007  0.5000000000000000
  0.3333340000000007  0.1333340000000007  0.5000000000000000
  0.5333340000000008  0.1333340000000007  0.5000000000000000
  0.7333340000000007  0.1333340000000007  0.5000000000000000
  0.9333340000000008  0.1333340000000007  0.5000000000000000
  0.1333340000000007  0.3333340000000007  0.5000000000000000
  0.3333340000000007  0.3333340000000007  0.5000000000000000
  0.5333340000000008  0.3333340000000007  0.5000000000000000
  0.7333340000000007  0.3333340000000007  0.5000000000000000
  0.9333340000000008  0.3333340000000007  0.5000000000000000
  0.1333340000000007  0.5333340000000008  0.5000000000000000
  0.3333340000000007  0.5333340000000008  0.5000000000000000
  0.5333340000000008  0.5333340000000008  0.5000000000000000
  0.7333340000000007  0.5333340000000008  0.5000000000000000
  0.9333340000000008  0.5333340000000008  0.5000000000000000
  0.1333340000000007  0.7333340000000007  0.5000000000000000
  0.3333340000000007  0.7333340000000007  0.5000000000000000
  0.5333340000000008  0.7333340000000007  0.5000000000000000
  0.7333340000000007  0.7333340000000007  0.5000000000000000
  0.9333340000000008  0.7333340000000007  0.5000000000000000
  0.1333340000000007  0.9333340000000008  0.5000000000000000
  0.3333340000000007  0.9333340000000008  0.5000000000000000
  0.5333340000000008  0.9333340000000008  0.5000000000000000
  0.7333340000000007  0.9333340000000008  0.5000000000000000
  0.9333340000000008  0.9333340000000008  0.5000000000000000
  0.0000000000000000  0.0000000000000000  0.2500000000000000
  0.2000000000000000  0.0000000000000000  0.2500000000000000
  0.4000000000000000  0.0000000000000000  0.2500000000000000
  0.6000000000000001  0.0000000000000000  0.2500000000000000
  0.8000000000000000  0.0000000000000000  0.2500000000000000
  0.0000000000000000  0.2000000000000000  0.2500000000000000
  0.2000000000000000  0.2000000000000000  0.2500000000000000
  0.4000000000000000  0.2000000000000000  0.2500000000000000
  0.6000000000000001  0.2000000000000000  0.2500000000000000
  0.8000000000000000  0.2000000000000000  0.2500000000000000
  0.0000000000000000  0.4000000000000000  0.2500000000000000
  0.2000000000000000  0.4000000000000000  0.2500000000000000
  0.4000000000000000  0.4000000000000000  0.2500000000000000
  0.6000000000000001  0.4000000000000000  0.2500000000000000
  0.8000000000000000  0.4000000000000000  0.2500000000000000
  0.0000000000000000  0.6000000000000001  0.2500000000000000
  0.2000000000000000  0.6000000000000001  0.2500000000000000
  0.4000000000000000  0.6000000000000001  0.2500000000000000
  0.6000000000000001  0.6000000000000001  0.2500000000000000
  0.8000000000000000  0.6000000000000001  0.2500000000000000
  0.0000000000000000  0.8000000000000000  0.2500000000000000
  0.2000000000000000  0.8000000000000000  0.2500000000000000
  0.4000000000000000  0.8000000000000000  0.2500000000000000
  0.6000000000000001  0.8000000000000000  0.2500000000000000
  0.8000000000000000  0.8000000000000000  0.2500000000000000
  0.0000000000000000  0.0000000000000000  0.7500000000000000
  0.2000000000000000  0.0000000000000000  0.7500000000000000
  0.4000000000000000  0.0000000000000000  0.7500000000000000
  0.6000000000000001  0.0000000000000000  0.7500000000000000
  0.8000000000000000  0.0000000000000000  0.7500000000000000
  0.0000000000000000  0.2000000000000000  0.7500000000000000
  0.2000000000000000  0.2000000000000000  0.7500000000000000
  0.4000000000000000  0.2000000000000000  0.7500000000000000
  0.6000000000000001  0.2000000000000000  0.7500000000000000
  0.8000000000000000  0.2000000000000000  0.7500000000000000
  0.0000000000000000  0.4000000000000000  0.7500000000000000
  0.2000000000000000  0.4000000000000000  0.7500000000000000
  0.4000000000000000  0.4000000000000000  0.7500000000000000
  0.6000000000000001  0.4000000000000000  0.7500000000000000
  0.8000000000000000  0.4000000000000000  0.7500000000000000
  0.0000000000000000  0.6000000000000001  0.7500000000000000
  0.2000000000000000  0.6000000000000001  0.7500000000000000
  0.4000000000000000  0.6000000000000001  0.7500000000000000
  0.6000000000000001  0.6000000000000001  0.7500000000000000
  0.8000000000000000  0.6000000000000001  0.7500000000000000
  0.0000000000000000  0.8000000000000000  0.7500000000000000
  0.2000000000000000  0.8000000000000000  0.7500000000000000
  0.4000000000000000  0.8000000000000000  0.7500000000000000
  0.6000000000000001  0.8000000000000000  0.7500000000000000
  0.8000000000000000  0.8000000000000000  0.7500000000000000
